files/upTests/_functions/funcSetLits/0004.eprime.solution
language ESSENCE' 1.0
$ minion Nodes: 1
$ minion TotalTime: 0.000507
$ Savile Row TotalTime: 0.225
letting f_Matrix1D_SetOccurrence be [[true, true;int(1,2)], 
[true, false;int(1,2)], 
[false, false;int(1,2)];int(1..3)]
